g3 0 1 0	# problem I1
 8 0 3 0 0	# vars, constraints, objectives, ranges, eqns
 0 3	# nonlinear constraints, objectives
 0 0	# network constraints: nonlinear, linear
 0 8 0	# nonlinear vars in constraints, objectives, both
 0 0 0 1	# linear network variables; functions; arith, flags
 0 0 0 0 0	# discrete variables: binary, integer, nonlinear (b,c,o)
 0 22	# nonzeros in Jacobian, gradients
 0 0	# max name lengths: constraints, variables
 0 0 30 0 3	# common exprs: b,c,o,c1,o1
V8 1 0
0 1
n0
V9 1 0
1 1
n0
V10 1 0
2 1
n0
V11 1 0
3 1
n0
V12 1 0
4 1
n0
V13 1 0
5 1
n0
V14 1 0
6 1
n0
V15 1 0
7 1
n0
V16 0 0
v8
V17 0 0
v9
V18 0 0
v10
V19 0 0
v11
V20 0 0
v12
V21 0 0
v13
V22 0 0
v14
V23 0 0
v15
V24 0 0
v16
V25 0 0
v17
V26 0 0
v18
V27 0 0
v19
V28 0 0
o3
o15
o1
v20
n0.35
o15
o0
n0.35
o13
o1
n0.35
v20
V29 0 0
o3
o15
o1
v21
n0.35
o15
o0
n0.35
o13
o1
n0.35
v21
V30 0 0
o3
o15
o1
v22
n0.35
o15
o0
n0.35
o13
o1
n0.35
v22
V31 0 0
o3
o15
o1
v23
n0.35
o15
o0
n0.35
o13
o1
n0.35
v23
V32 0 0
o0
o2
n0.5
v25
o2
n0.5
v24
V33 0 0
o0
o2
n0.5
v27
o2
n0.5
v26
V34 0 0
o54
4
o2
n0.25
v31
o2
n0.25
v30
o2
n0.25
v29
o2
n0.25
v28
V35 0 0
o0
o2
o12
2
n1
v34
o1
v32
n0.5
n0.5
V36 0 0
o0
o2
o12
2
n1
v34
o1
v33
n0.5
n0.5
V37 0 0
v34
V38 0 1
o2
o41
o2
n1.5707963267948966
v35
o41
o2
n1.5707963267948966
v36
O0 0
o0
v38
v37
V39 0 2
o2
o41
o2
n1.5707963267948966
v35
o46
o2
n1.5707963267948966
v36
O1 0
o0
v39
v37
V40 0 3
o46
o2
n1.5707963267948966
v35
O2 0
o0
v40
v37
b
0 0 1
0 0 1
0 0 1
0 0 1
0 0 1
0 0 1
0 0 1
0 0 1
k7
0
0
0
0
0
0
0
G0 8
0 0
1 0
2 0
3 0
4 0
5 0
6 0
7 0
G1 8
0 0
1 0
2 0
3 0
4 0
5 0
6 0
7 0
G2 6
0 0
1 0
4 0
5 0
6 0
7 0
